0
Node Left Objective IInf Best_Integer Best_Bound ItCnt Gap
0+ 0 nan nan 136.4723 0.0000 nan 100.00%
0+ 0 nan nan 99.1655 0.0000 nan 100.00%
0 0 1.0620 26 99.1655 1.0620 177 98.93%
0 0 7.1762 28 99.1655 Cuts:23 204 92.76%
0 0 8.6406 32 99.1655 Cuts:31 240 91.29%
0 0 11.0750 32 99.1655 Cuts:26 266 88.83%
0+ 0 nan nan 85.0724 11.0750 nan 86.98%
0 0 12.5654 31 85.0724 Disjcuts:10 299 85.23%
0 0 13.7650 32 85.0724 Cuts:16 324 83.82%
0 0 13.8871 33 85.0724 Disjcuts:5 334 83.68%
0+ 0 nan nan 84.5865 13.8871 nan 83.58%
0+ 0 nan nan 73.9248 13.8871 nan 81.21%
0+ 0 nan nan 70.9886 13.8871 nan 80.44%
0 2 13.8871 33 70.9886 13.9888 334 80.29%
CPXPARAM_MIP_Cuts_Gomory-Disjunctive-MIRCut:Gomory 0
CPXPARAM_MIP_Cuts_Gomory-Disjunctive-MIRCut:Disjunctive 2
CPXPARAM_MIP_Cuts_Gomory-Disjunctive-MIRCut:MIRCut 16
1
Node Left Objective IInf Best_Integer Best_Bound ItCnt Gap
0+ 0 nan nan 136.4723 0.0000 nan 100.00%
0+ 0 nan nan 99.1655 0.0000 nan 100.00%
0 0 0.0000 27 99.1655 0.0000 131 100.00%
0+ 0 nan nan 86.2827 0.0000 nan 100.00%
0 0 0.0000 20 86.2827 Cuts:2 135 100.00%
0+ 0 nan nan 77.7223 0.0000 nan 100.00%
0 0 0.0000 23 77.7223 Cuts:17 167 100.00%
0+ 0 nan nan 69.3264 0.0000 nan 100.00%
0+ 0 nan nan 46.7284 0.0000 nan 100.00%
0 2 0.0000 21 46.7284 0.0000 167 100.00%
CPXPARAM_MIP_Cuts_Gomory-Disjunctive-MIRCut:Gomory 0
CPXPARAM_MIP_Cuts_Gomory-Disjunctive-MIRCut:Disjunctive 0
CPXPARAM_MIP_Cuts_Gomory-Disjunctive-MIRCut:MIRCut 0
2
Node Left Objective IInf Best_Integer Best_Bound ItCnt Gap
0+ 0 nan nan 136.4723 0.0000 nan 100.00%
0+ 0 nan nan 69.8576 0.0000 nan 100.00%
0 0 0.0000 23 69.8576 0.0000 131 100.00%
0 0 0.0000 24 69.8576 Cuts:22 165 100.00%
0 0 0.8466 26 69.8576 Cuts:20 217 98.79%
0 0 3.4193 29 69.8576 Cuts:26 274 95.11%
0 0 4.7076 27 69.8576 Cuts:11 306 93.26%
0+ 0 nan nan 62.5858 4.7076 nan 92.48%
0 0 6.2891 26 62.5858 Cuts:15 339 89.95%
0 0 6.3780 26 62.5858 Disjcuts:2 347 89.81%
0 0 6.4024 27 62.5858 Cuts:2 352 89.77%
0+ 0 nan nan 61.5518 6.4024 nan 89.60%
0+ 0 nan nan 53.7812 6.4024 nan 88.10%
0 2 6.4024 27 53.7812 6.4292 352 88.05%
CPXPARAM_MIP_Cuts_Gomory-Disjunctive-MIRCut:Gomory 0
CPXPARAM_MIP_Cuts_Gomory-Disjunctive-MIRCut:Disjunctive 1
CPXPARAM_MIP_Cuts_Gomory-Disjunctive-MIRCut:MIRCut 10
3
Node Left Objective IInf Best_Integer Best_Bound ItCnt Gap
0+ 0 nan nan 136.4723 0.0000 nan 100.00%
0+ 0 nan nan 69.8576 0.0000 nan 100.00%
0 0 0.0000 23 69.8576 0.0000 128 100.00%
0+ 0 nan nan 52.6772 0.0000 nan 100.00%
0 0 0.0000 16 52.6772 Fract:1 129 100.00%
0+ 0 nan nan 20.1192 0.0000 nan 100.00%
0 0 0.0000 17 20.1192 Cuts:18 176 100.00%
0 0 0.0000 15 20.1192 Fract:2 177 100.00%
0+ 0 nan nan 19.4482 0.0000 nan 100.00%
0 2 0.0000 15 19.4482 0.0000 177 100.00%
CPXPARAM_MIP_Cuts_Gomory-Disjunctive-MIRCut:Gomory 0
CPXPARAM_MIP_Cuts_Gomory-Disjunctive-MIRCut:Disjunctive 1
CPXPARAM_MIP_Cuts_Gomory-Disjunctive-MIRCut:MIRCut 0
4
Node Left Objective IInf Best_Integer Best_Bound ItCnt Gap
0+ 0 nan nan 115.1924 0.0000 nan 100.00%
0+ 0 nan nan 108.1598 0.0000 nan 100.00%
0+ 0 nan nan 98.2525 0.0000 nan 100.00%
0 0 10.9280 24 98.2525 10.9280 158 88.88%
0 0 16.0956 26 98.2525 Cuts:16 190 83.62%
0 0 17.8460 29 98.2525 Cuts:25 217 81.84%
0+ 0 nan nan 87.4798 17.8460 nan 79.60%
0 0 19.8024 28 87.4798 Cuts:16 244 77.36%
0 0 21.0992 30 87.4798 Cuts:12 262 75.88%
0 0 21.9334 29 87.4798 Cuts:17 290 74.93%
0 0 22.0120 27 87.4798 Disjcuts:1 297 74.84%
0 0 22.0494 28 87.4798 Fract:1 304 74.79%
0+ 0 nan nan 64.7712 22.0494 nan 65.96%
0 2 22.0494 28 64.7712 22.0741 304 65.92%
CPXPARAM_MIP_Cuts_Gomory-Disjunctive-MIRCut:Gomory 0
CPXPARAM_MIP_Cuts_Gomory-Disjunctive-MIRCut:Disjunctive 2
CPXPARAM_MIP_Cuts_Gomory-Disjunctive-MIRCut:MIRCut 10
5
Node Left Objective IInf Best_Integer Best_Bound ItCnt Gap
0+ 0 nan nan 115.1924 0.0000 nan 100.00%
0+ 0 nan nan 108.1598 0.0000 nan 100.00%
0+ 0 nan nan 79.8300 0.0000 nan 100.00%
0 0 0.0000 27 79.8300 0.0000 129 100.00%
0+ 0 nan nan 77.7750 0.0000 nan 100.00%
0 0 0.0000 20 77.7750 Fract:1 133 100.00%
0 0 0.0000 22 77.7750 Cuts:14 155 100.00%
0+ 0 nan nan 67.3310 0.0000 nan 100.00%
0+ 0 nan nan 66.4069 0.0000 nan 100.00%
0 2 0.0000 20 66.4069 0.0000 155 100.00%
CPXPARAM_MIP_Cuts_Gomory-Disjunctive-MIRCut:Gomory 0
CPXPARAM_MIP_Cuts_Gomory-Disjunctive-MIRCut:Disjunctive 0
CPXPARAM_MIP_Cuts_Gomory-Disjunctive-MIRCut:MIRCut 0
6
Node Left Objective IInf Best_Integer Best_Bound ItCnt Gap
0+ 0 nan nan 115.1924 0.0000 nan 100.00%
0+ 0 nan nan 81.9438 0.0000 nan 100.00%
0 0 10.7107 19 81.9438 10.7107 153 86.93%
0+ 0 nan nan 80.6567 10.7107 nan 86.72%
0 0 15.0383 22 80.6567 Cuts:16 178 81.36%
0 0 19.1441 26 80.6567 Cuts:23 213 76.26%
0 0 20.5628 25 80.6567 Cuts:23 237 74.51%
0 0 22.3155 26 80.6567 Cuts:21 279 72.33%
0 0 22.9513 25 80.6567 Cuts:17 316 71.54%
0 0 23.2256 25 80.6567 Disjcuts:3 330 71.20%
0+ 0 nan nan 68.7487 23.2256 nan 66.22%
0 0 23.5470 24 68.7487 Disjcuts:1 340 65.75%
0 0 23.5706 23 68.7487 Disjcuts:1 346 65.71%
0+ 0 nan nan 54.5564 23.5706 nan 56.80%
0 2 23.5706 23 54.5564 23.5781 346 56.78%
CPXPARAM_MIP_Cuts_Gomory-Disjunctive-MIRCut:Gomory 0
CPXPARAM_MIP_Cuts_Gomory-Disjunctive-MIRCut:Disjunctive 1
CPXPARAM_MIP_Cuts_Gomory-Disjunctive-MIRCut:MIRCut 14
7
Node Left Objective IInf Best_Integer Best_Bound ItCnt Gap
0+ 0 nan nan 115.1924 0.0000 nan 100.00%
0+ 0 nan nan 81.9438 0.0000 nan 100.00%
0 0 0.0000 23 81.9438 0.0000 123 100.00%
0+ 0 nan nan 62.3577 0.0000 nan 100.00%
0+ 0 nan nan 41.4305 0.0000 nan 100.00%
0+ 0 nan nan 30.7090 0.0000 nan 100.00%
0 2 0.0000 16 30.7090 0.0000 123 100.00%
CPXPARAM_MIP_Cuts_Gomory-Disjunctive-MIRCut:Gomory 0
CPXPARAM_MIP_Cuts_Gomory-Disjunctive-MIRCut:Disjunctive 0
CPXPARAM_MIP_Cuts_Gomory-Disjunctive-MIRCut:MIRCut 0
8
Node Left Objective IInf Best_Integer Best_Bound ItCnt Gap
0+ 0 nan nan 131.6037 0.0000 nan 100.00%
0+ 0 nan nan 111.2422 0.0000 nan 100.00%
0+ 0 nan nan 109.8445 0.0000 nan 100.00%
0 0 16.8750 23 109.8445 16.8750 153 84.64%
0 0 18.8668 27 109.8445 Cuts:12 183 82.82%
0 0 21.7491 30 109.8445 Cuts:23 209 80.20%
0 0 23.5847 29 109.8445 Cuts:17 241 78.53%
0 0 24.5257 32 109.8445 Cuts:19 274 77.67%
0 0 25.1390 33 109.8445 Cuts:8 302 77.11%
0 0 25.1899 31 109.8445 Cuts:4 316 77.07%
0 0 25.2738 33 109.8445 Disjcuts:4 327 76.99%
0 0 25.3217 32 109.8445 Disjcuts:2 335 76.95%
0 0 25.3511 32 109.8445 Disjcuts:1 339 76.92%
0 0 25.4750 33 109.8445 Disjcuts:2 344 76.81%
0 0 25.6270 32 109.8445 Disjcuts:1 350 76.67%
0+ 0 nan nan 104.9116 25.6270 nan 75.57%
0 0 25.7684 33 104.9116 Cuts:5 364 75.44%
0+ 0 nan nan 81.0619 25.7684 nan 68.21%
0+ 0 nan nan 80.7581 25.7684 nan 68.09%
0 2 25.7684 33 80.7581 25.8040 364 68.05%
CPXPARAM_MIP_Cuts_Gomory-Disjunctive-MIRCut:Gomory 0
CPXPARAM_MIP_Cuts_Gomory-Disjunctive-MIRCut:Disjunctive 1
CPXPARAM_MIP_Cuts_Gomory-Disjunctive-MIRCut:MIRCut 16
9
Node Left Objective IInf Best_Integer Best_Bound ItCnt Gap
0+ 0 nan nan 131.6037 0.0000 nan 100.00%
0+ 0 nan nan 111.2422 0.0000 nan 100.00%
0 0 0.0000 27 111.2422 0.0000 128 100.00%
0+ 0 nan nan 94.5662 0.0000 nan 100.00%
0 0 0.0000 23 94.5662 Disjcuts:5 140 100.00%
0 0 0.0000 21 94.5662 Cuts:31 189 100.00%
0+ 0 nan nan 84.8947 0.0000 nan 100.00%
0 0 0.0000 22 84.8947 Cuts:19 243 100.00%
0+ 0 nan nan 81.8551 0.0000 nan 100.00%
0+ 0 nan nan 65.5881 0.0000 nan 100.00%
0+ 0 nan nan 59.6309 0.0000 nan 100.00%
0 2 0.0000 21 59.6309 0.0000 243 100.00%
CPXPARAM_MIP_Cuts_Gomory-Disjunctive-MIRCut:Gomory 0
CPXPARAM_MIP_Cuts_Gomory-Disjunctive-MIRCut:Disjunctive 1
CPXPARAM_MIP_Cuts_Gomory-Disjunctive-MIRCut:MIRCut 0
10
Node Left Objective IInf Best_Integer Best_Bound ItCnt Gap
0+ 0 nan nan 131.6037 0.0000 nan 100.00%
0+ 0 nan nan 99.6733 0.0000 nan 100.00%
0 0 0.0000 23 99.6733 0.0000 139 100.00%
0 0 1.8891 26 99.6733 Cuts:28 216 98.10%
0 0 6.0892 28 99.6733 Cuts:24 253 93.89%
0 0 8.7181 26 99.6733 Cuts:29 282 91.25%
0 0 9.3887 27 99.6733 Cuts:10 303 90.58%
0 0 9.9305 28 99.6733 Cuts:12 323 90.04%
0 0 10.2669 27 99.6733 Disjcuts:2 337 89.70%
0 0 10.3037 28 99.6733 Disjcuts:3 344 89.66%
0+ 0 nan nan 89.4656 10.3037 nan 88.48%
0+ 0 nan nan 69.0496 10.3037 nan 85.08%
0 2 10.3037 28 69.0496 10.3790 344 84.97%
CPXPARAM_MIP_Cuts_Gomory-Disjunctive-MIRCut:Gomory 0
CPXPARAM_MIP_Cuts_Gomory-Disjunctive-MIRCut:Disjunctive 2
CPXPARAM_MIP_Cuts_Gomory-Disjunctive-MIRCut:MIRCut 11
11
Node Left Objective IInf Best_Integer Best_Bound ItCnt Gap
0+ 0 nan nan 131.6037 0.0000 nan 100.00%
0+ 0 nan nan 99.6733 0.0000 nan 100.00%
0 0 0.0000 23 99.6733 0.0000 134 100.00%
0+ 0 nan nan 80.1830 0.0000 nan 100.00%
0 0 0.0000 17 80.1830 Cuts:5 145 100.00%
0+ 0 nan nan 76.9814 0.0000 nan 100.00%
0 0 0.0000 17 76.9814 Cuts:15 164 100.00%
0 0 0.0000 17 76.9814 Disjcuts:3 181 100.00%
0+ 0 nan nan 70.0833 0.0000 nan 100.00%
0+ 0 nan nan 50.7014 0.0000 nan 100.00%
0+ 0 nan nan 33.2676 0.0000 nan 100.00%
0 2 0.0000 17 33.2676 0.0000 181 100.00%
CPXPARAM_MIP_Cuts_Gomory-Disjunctive-MIRCut:Gomory 0
CPXPARAM_MIP_Cuts_Gomory-Disjunctive-MIRCut:Disjunctive 0
CPXPARAM_MIP_Cuts_Gomory-Disjunctive-MIRCut:MIRCut 3
12
Node Left Objective IInf Best_Integer Best_Bound ItCnt Gap
0+ 0 nan nan 110.3567 0.0000 nan 100.00%
0+ 0 nan nan 96.6816 0.0000 nan 100.00%
0 0 0.0000 27 96.6816 0.0000 148 100.00%
0 0 7.0414 29 96.6816 Cuts:30 224 92.72%
0 0 10.9658 29 96.6816 Cuts:25 262 88.66%
0 0 11.6910 32 96.6816 Cuts:11 282 87.91%
0 0 14.0390 31 96.6816 Cuts:21 318 85.48%
0 0 16.6904 32 96.6816 Cuts:22 369 82.74%
0 0 16.7327 33 96.6816 Disjcuts:1 376 82.69%
0+ 0 nan nan 75.8782 16.7327 nan 77.95%
0+ 0 nan nan 65.4292 16.7327 nan 74.43%
0 2 16.7327 33 65.4292 16.7856 376 74.35%
CPXPARAM_MIP_Cuts_Gomory-Disjunctive-MIRCut:Gomory 0
CPXPARAM_MIP_Cuts_Gomory-Disjunctive-MIRCut:Disjunctive 1
CPXPARAM_MIP_Cuts_Gomory-Disjunctive-MIRCut:MIRCut 16
13
Node Left Objective IInf Best_Integer Best_Bound ItCnt Gap
0+ 0 nan nan 110.3567 0.0000 nan 100.00%
0+ 0 nan nan 96.6816 0.0000 nan 100.00%
0 0 0.0000 27 96.6816 0.0000 129 100.00%
0+ 0 nan nan 73.2319 0.0000 nan 100.00%
0 0 0.0000 21 73.2319 Cuts:7 139 100.00%
0 0 0.0000 23 73.2319 Cuts:19 190 100.00%
0+ 0 nan nan 59.5025 0.0000 nan 100.00%
0+ 0 nan nan 48.9645 0.0000 nan 100.00%
0 2 0.0000 20 48.9645 0.0000 190 100.00%
CPXPARAM_MIP_Cuts_Gomory-Disjunctive-MIRCut:Gomory 0
CPXPARAM_MIP_Cuts_Gomory-Disjunctive-MIRCut:Disjunctive 0
CPXPARAM_MIP_Cuts_Gomory-Disjunctive-MIRCut:MIRCut 0
14
Node Left Objective IInf Best_Integer Best_Bound ItCnt Gap
0+ 0 nan nan 110.3567 0.0000 nan 100.00%
0+ 0 nan nan 82.1268 0.0000 nan 100.00%
0 0 0.0000 23 82.1268 0.0000 134 100.00%
0 0 2.8572 25 82.1268 Cuts:30 223 96.52%
0 0 7.7416 25 82.1268 Cuts:38 250 90.57%
0 0 10.0051 28 82.1268 Cuts:15 289 87.82%
0 0 10.7546 27 82.1268 Cuts:18 311 86.90%
0 0 11.3007 30 82.1268 Cuts:17 330 86.24%
0 0 11.4663 30 82.1268 Disjcuts:3 338 86.04%
0 0 11.4673 30 82.1268 Disjcuts:1 339 86.04%
0+ 0 nan nan 71.8602 11.4673 nan 84.04%
0+ 0 nan nan 56.8119 11.4673 nan 79.82%
0 2 11.4673 30 56.8119 11.5976 339 79.59%
CPXPARAM_MIP_Cuts_Gomory-Disjunctive-MIRCut:Gomory 0
CPXPARAM_MIP_Cuts_Gomory-Disjunctive-MIRCut:Disjunctive 3
CPXPARAM_MIP_Cuts_Gomory-Disjunctive-MIRCut:MIRCut 16
15
Node Left Objective IInf Best_Integer Best_Bound ItCnt Gap
0+ 0 nan nan 110.3567 0.0000 nan 100.00%
0+ 0 nan nan 82.1268 0.0000 nan 100.00%
0 0 0.0000 23 82.1268 0.0000 126 100.00%
0+ 0 nan nan 37.4097 0.0000 nan 100.00%
0 0 0.0000 17 37.4097 Cuts:4 133 100.00%
0 0 0.0000 17 37.4097 Cuts:15 159 100.00%
0 0 0.0000 16 37.4097 Disjcuts:1 166 100.00%
0+ 0 nan nan 22.0536 0.0000 nan 100.00%
0 2 0.0000 15 22.0536 0.0000 166 100.00%
CPXPARAM_MIP_Cuts_Gomory-Disjunctive-MIRCut:Gomory 0
CPXPARAM_MIP_Cuts_Gomory-Disjunctive-MIRCut:Disjunctive 0
CPXPARAM_MIP_Cuts_Gomory-Disjunctive-MIRCut:MIRCut 1
16
Node Left Objective IInf Best_Integer Best_Bound ItCnt Gap
0+ 0 nan nan 109.2984 0.0000 nan 100.00%
0+ 0 nan nan 97.6971 0.0000 nan 100.00%
0 0 0.0000 27 97.6971 0.0000 150 100.00%
0 0 9.1171 30 97.6971 Cuts:31 225 90.67%
0 0 12.5313 30 97.6971 Cuts:33 266 87.17%
0 0 13.6383 31 97.6971 Cuts:12 287 86.04%
0 0 16.6485 32 97.6971 Cuts:25 324 82.96%
0 0 17.9829 31 97.6971 Cuts:25 366 81.59%
0 0 18.0745 33 97.6971 Cuts:2 374 81.50%
0+ 0 nan nan 81.6566 18.0745 nan 77.87%
0 2 18.0745 33 81.6566 18.1967 374 77.72%
CPXPARAM_MIP_Cuts_Gomory-Disjunctive-MIRCut:Gomory 1
CPXPARAM_MIP_Cuts_Gomory-Disjunctive-MIRCut:Disjunctive 2
CPXPARAM_MIP_Cuts_Gomory-Disjunctive-MIRCut:MIRCut 19
17
Node Left Objective IInf Best_Integer Best_Bound ItCnt Gap
0+ 0 nan nan 109.2984 0.0000 nan 100.00%
0+ 0 nan nan 97.6971 0.0000 nan 100.00%
0 0 0.0000 27 97.6971 0.0000 125 100.00%
0+ 0 nan nan 71.0845 0.0000 nan 100.00%
0 0 0.0000 21 71.0845 Disjcuts:1 130 100.00%
0+ 0 nan nan 59.5187 0.0000 nan 100.00%
0 0 0.0000 20 59.5187 Cuts:21 146 100.00%
0+ 0 nan nan 53.7459 0.0000 nan 100.00%
0 0 0.0000 22 53.7459 Cuts:18 189 100.00%
0+ 0 nan nan 50.7304 0.0000 nan 100.00%
0+ 0 nan nan 40.4532 0.0000 nan 100.00%
0 2 0.0000 21 40.4532 0.0000 189 100.00%
CPXPARAM_MIP_Cuts_Gomory-Disjunctive-MIRCut:Gomory 0
CPXPARAM_MIP_Cuts_Gomory-Disjunctive-MIRCut:Disjunctive 0
CPXPARAM_MIP_Cuts_Gomory-Disjunctive-MIRCut:MIRCut 0
18
Node Left Objective IInf Best_Integer Best_Bound ItCnt Gap
0+ 0 nan nan 109.2984 0.0000 nan 100.00%
0+ 0 nan nan 86.6088 0.0000 nan 100.00%
0 0 11.3010 19 86.6088 11.3010 155 86.95%
0 0 15.3683 21 86.6088 Cuts:17 183 82.26%
0 0 17.6948 24 86.6088 Cuts:19 213 79.57%
0 0 19.5000 24 86.6088 Cuts:16 252 77.49%
0 0 20.2038 25 86.6088 Cuts:13 282 76.67%
0 0 21.0887 25 86.6088 Disjcuts:5 303 75.65%
0+ 0 nan nan 59.8974 21.0887 nan 64.79%
0 2 21.0887 25 59.8974 21.2147 303 64.58%
CPXPARAM_MIP_Cuts_Gomory-Disjunctive-MIRCut:Gomory 0
CPXPARAM_MIP_Cuts_Gomory-Disjunctive-MIRCut:Disjunctive 4
CPXPARAM_MIP_Cuts_Gomory-Disjunctive-MIRCut:MIRCut 12
19
Node Left Objective IInf Best_Integer Best_Bound ItCnt Gap
0+ 0 nan nan 109.2984 0.0000 nan 100.00%
0+ 0 nan nan 86.6088 0.0000 nan 100.00%
0 0 0.0000 23 86.6088 0.0000 119 100.00%
0+ 0 nan nan 49.5540 0.0000 nan 100.00%
0 0 0.0000 17 49.5540 Cuts:3 132 100.00%
0 0 0.0000 17 49.5540 Cuts:18 172 100.00%
0 0 0.0000 15 49.5540 Disjcuts:1 179 100.00%
0+ 0 nan nan 45.3145 0.0000 nan 100.00%
0+ 0 nan nan 29.3316 0.0000 nan 100.00%
0 2 0.0000 15 29.3316 0.0000 179 100.00%
CPXPARAM_MIP_Cuts_Gomory-Disjunctive-MIRCut:Gomory 0
CPXPARAM_MIP_Cuts_Gomory-Disjunctive-MIRCut:Disjunctive 1
CPXPARAM_MIP_Cuts_Gomory-Disjunctive-MIRCut:MIRCut 1
20
Node Left Objective IInf Best_Integer Best_Bound ItCnt Gap
0+ 0 nan nan 93.3792 0.0000 nan 100.00%
0+ 0 nan nan 84.6822 0.0000 nan 100.00%
0 0 0.0000 27 84.6822 0.0000 133 100.00%
0+ 0 nan nan 52.3615 0.0000 nan 100.00%
0 0 6.8417 28 52.3615 Cuts:30 214 86.93%
0 0 9.1510 28 52.3615 Cuts:26 252 82.52%
0 0 10.1622 29 52.3615 Cuts:21 287 80.59%
0 0 11.2763 31 52.3615 Cuts:18 314 78.46%
0 0 12.2383 28 52.3615 Cuts:17 357 76.63%
0+ 0 nan nan 49.4052 12.2383 nan 75.23%
0+ 0 nan nan 41.1646 12.2383 nan 70.27%
0+ 0 nan nan 37.8233 12.2383 nan 67.64%
0 2 12.2383 28 37.8233 12.4113 357 67.19%
CPXPARAM_MIP_Cuts_Gomory-Disjunctive-MIRCut:Gomory 0
CPXPARAM_MIP_Cuts_Gomory-Disjunctive-MIRCut:Disjunctive 1
CPXPARAM_MIP_Cuts_Gomory-Disjunctive-MIRCut:MIRCut 12
21
Node Left Objective IInf Best_Integer Best_Bound ItCnt Gap
0+ 0 nan nan 93.3792 0.0000 nan 100.00%
0+ 0 nan nan 84.6822 0.0000 nan 100.00%
0 0 0.0000 27 84.6822 0.0000 121 100.00%
0+ 0 nan nan 33.7589 0.0000 nan 100.00%
0 0 0.0000 21 33.7589 Cuts:9 138 100.00%
0+ 0 nan nan 30.6520 0.0000 nan 100.00%
0 0 0.0000 20 30.6520 Cuts:19 193 100.00%
0 0 0.0000 19 30.6520 Fract:3 198 100.00%
0+ 0 nan nan 24.0172 0.0000 nan 100.00%
0+ 0 nan nan 15.3944 0.0000 nan 100.00%
0 2 0.0000 18 15.3944 0.0000 198 100.00%
CPXPARAM_MIP_Cuts_Gomory-Disjunctive-MIRCut:Gomory 0
CPXPARAM_MIP_Cuts_Gomory-Disjunctive-MIRCut:Disjunctive 0
CPXPARAM_MIP_Cuts_Gomory-Disjunctive-MIRCut:MIRCut 0
22
Node Left Objective IInf Best_Integer Best_Bound ItCnt Gap
0+ 0 nan nan 93.3792 0.0000 nan 100.00%
0+ 0 nan nan 77.4137 0.0000 nan 100.00%
0 0 0.0000 23 77.4137 0.0000 135 100.00%
0+ 0 nan nan 51.5425 0.0000 nan 100.00%
0 0 4.5025 23 51.5425 Cuts:19 166 91.26%
0 0 8.6327 23 51.5425 Cuts:24 206 83.25%
0 0 9.3311 26 51.5425 Disjcuts:10 244 81.90%
0 0 9.7902 26 51.5425 Cuts:10 272 81.01%
0 0 10.2118 25 51.5425 Cuts:15 307 80.19%
0+ 0 nan nan 31.0783 10.2118 nan 67.14%
0+ 0 nan nan 28.5540 10.2118 nan 64.24%
0 2 10.2118 25 28.5540 10.2169 307 64.22%
CPXPARAM_MIP_Cuts_Gomory-Disjunctive-MIRCut:Gomory 0
CPXPARAM_MIP_Cuts_Gomory-Disjunctive-MIRCut:Disjunctive 1
CPXPARAM_MIP_Cuts_Gomory-Disjunctive-MIRCut:MIRCut 15
23
Node Left Objective IInf Best_Integer Best_Bound ItCnt Gap
0+ 0 nan nan 93.3792 0.0000 nan 100.00%
0+ 0 nan nan 77.4137 0.0000 nan 100.00%
0 0 0.0000 22 77.4137 0.0000 123 100.00%
0+ 0 nan nan 44.2766 0.0000 nan 100.00%
0+ 0 nan nan 39.2549 0.0000 nan 100.00%
0+ 0 nan nan 29.4715 0.0000 nan 100.00%
0+ 0 nan nan 24.9683 0.0000 nan 100.00%
0 2 0.0000 16 24.9683 0.0000 123 100.00%
CPXPARAM_MIP_Cuts_Gomory-Disjunctive-MIRCut:Gomory 0
CPXPARAM_MIP_Cuts_Gomory-Disjunctive-MIRCut:Disjunctive 0
CPXPARAM_MIP_Cuts_Gomory-Disjunctive-MIRCut:MIRCut 0
24
Node Left Objective IInf Best_Integer Best_Bound ItCnt Gap
0+ 0 nan nan 94.5045 0.0000 nan 100.00%
0+ 0 nan nan 83.7373 0.0000 nan 100.00%
0 0 0.0000 27 83.7373 0.0000 149 100.00%
0+ 0 nan nan 83.3613 0.0000 nan 100.00%
0 0 3.9655 28 83.3613 Cuts:23 204 95.24%
0 0 9.5529 29 83.3613 Cuts:34 252 88.54%
0 0 13.6394 26 83.3613 Cuts:19 318 83.64%
0+ 0 nan nan 63.5480 13.6394 nan 78.54%
0 0 14.5600 28 63.5480 Cuts:10 343 77.09%
0 0 15.4673 30 63.5480 Cuts:9 373 75.66%
0 0 15.4924 30 63.5480 Disjcuts:2 379 75.62%
0+ 0 nan nan 61.1509 15.4924 nan 74.67%
0+ 0 nan nan 48.0074 15.4924 nan 67.73%
0 2 15.4924 30 48.0074 15.6790 379 67.34%
CPXPARAM_MIP_Cuts_Gomory-Disjunctive-MIRCut:Gomory 0
CPXPARAM_MIP_Cuts_Gomory-Disjunctive-MIRCut:Disjunctive 2
CPXPARAM_MIP_Cuts_Gomory-Disjunctive-MIRCut:MIRCut 18
25
Node Left Objective IInf Best_Integer Best_Bound ItCnt Gap
0+ 0 nan nan 94.5045 0.0000 nan 100.00%
0+ 0 nan nan 83.7373 0.0000 nan 100.00%
0 0 0.0000 27 83.7373 0.0000 131 100.00%
0+ 0 nan nan 37.6521 0.0000 nan 100.00%
0 0 0.0000 19 37.6521 Disjcuts:1 143 100.00%
0 0 0.0000 19 37.6521 Cuts:11 174 100.00%
0 0 0.0000 19 37.6521 Cuts:14 205 100.00%
0+ 0 nan nan 36.4154 0.0000 nan 100.00%
0 2 0.0000 19 36.4154 0.0000 205 100.00%
CPXPARAM_MIP_Cuts_Gomory-Disjunctive-MIRCut:Gomory 0
CPXPARAM_MIP_Cuts_Gomory-Disjunctive-MIRCut:Disjunctive 2
CPXPARAM_MIP_Cuts_Gomory-Disjunctive-MIRCut:MIRCut 0
26
Node Left Objective IInf Best_Integer Best_Bound ItCnt Gap
0+ 0 nan nan 94.5045 0.0000 nan 100.00%
0+ 0 nan nan 77.4984 0.0000 nan 100.00%
0 0 0.0000 23 77.4984 0.0000 128 100.00%
0+ 0 nan nan 57.4577 0.0000 nan 100.00%
0 0 4.2240 24 57.4577 Cuts:33 247 92.65%
0 0 10.6109 25 57.4577 Cuts:26 298 81.53%
0 0 12.4697 24 57.4577 Cuts:17 320 78.30%
0 0 14.7771 27 57.4577 Cuts:15 364 74.28%
0 0 15.8909 29 57.4577 Cuts:21 394 72.34%
0 0 16.0029 27 57.4577 Disjcuts:1 407 72.15%
0 0 16.0192 27 57.4577 Disjcuts:1 414 72.12%
0+ 0 nan nan 37.5218 16.0192 nan 57.31%
0 2 16.0192 27 37.5218 16.0235 414 57.30%
CPXPARAM_MIP_Cuts_Gomory-Disjunctive-MIRCut:Gomory 0
CPXPARAM_MIP_Cuts_Gomory-Disjunctive-MIRCut:Disjunctive 3
CPXPARAM_MIP_Cuts_Gomory-Disjunctive-MIRCut:MIRCut 14
27
Node Left Objective IInf Best_Integer Best_Bound ItCnt Gap
0+ 0 nan nan 94.5045 0.0000 nan 100.00%
0+ 0 nan nan 77.4984 0.0000 nan 100.00%
0 0 0.0000 23 77.4984 0.0000 115 100.00%
0+ 0 nan nan 29.2294 0.0000 nan 100.00%
0+ 0 nan nan 18.5243 0.0000 nan 100.00%
0+ 0 nan nan 18.3372 0.0000 nan 100.00%
0+ 0 nan nan 10.2788 0.0000 nan 100.00%
0 2 0.0000 14 10.2788 0.0000 115 100.00%
CPXPARAM_MIP_Cuts_Gomory-Disjunctive-MIRCut:Gomory 0
CPXPARAM_MIP_Cuts_Gomory-Disjunctive-MIRCut:Disjunctive 0
CPXPARAM_MIP_Cuts_Gomory-Disjunctive-MIRCut:MIRCut 0
28
Node Left Objective IInf Best_Integer Best_Bound ItCnt Gap
0+ 0 nan nan 133.7092 0.0000 nan 100.00%
0+ 0 nan nan 129.6212 0.0000 nan 100.00%
0+ 0 nan nan 108.6480 0.0000 nan 100.00%
0 0 11.6826 21 108.6480 11.6826 155 89.25%
0 0 20.3951 24 108.6480 Cuts:14 192 81.23%
0 0 23.2474 29 108.6480 Cuts:18 223 78.60%
0 0 27.1103 31 108.6480 Disjcuts:14 257 75.05%
0 0 28.8321 35 108.6480 Cuts:21 289 73.46%
0 0 29.9077 31 108.6480 Cuts:18 318 72.47%
0 0 30.0300 30 108.6480 Cuts:2 325 72.36%
0 0 30.1329 29 108.6480 Disjcuts:2 332 72.27%
0+ 0 nan nan 82.0165 30.1329 nan 63.26%
0+ 0 nan nan 81.1944 30.1329 nan 62.89%
0+ 0 nan nan 76.9710 30.1329 nan 60.85%
0 2 30.1329 29 76.9710 30.1342 332 60.85%
CPXPARAM_MIP_Cuts_Gomory-Disjunctive-MIRCut:Gomory 1
CPXPARAM_MIP_Cuts_Gomory-Disjunctive-MIRCut:Disjunctive 3
CPXPARAM_MIP_Cuts_Gomory-Disjunctive-MIRCut:MIRCut 14
29
Node Left Objective IInf Best_Integer Best_Bound ItCnt Gap
0+ 0 nan nan 133.7092 0.0000 nan 100.00%
0+ 0 nan nan 129.6212 0.0000 nan 100.00%
0 0 0.0000 27 129.6212 0.0000 131 100.00%
0+ 0 nan nan 72.3650 0.0000 nan 100.00%
0+ 0 nan nan 64.1539 0.0000 nan 100.00%
0+ 0 nan nan 53.0370 0.0000 nan 100.00%
0+ 0 nan nan 41.9504 0.0000 nan 100.00%
0 2 0.0000 23 41.9504 0.0000 131 100.00%
CPXPARAM_MIP_Cuts_Gomory-Disjunctive-MIRCut:Gomory 0
CPXPARAM_MIP_Cuts_Gomory-Disjunctive-MIRCut:Disjunctive 0
CPXPARAM_MIP_Cuts_Gomory-Disjunctive-MIRCut:MIRCut 0
30
Node Left Objective IInf Best_Integer Best_Bound ItCnt Gap
0+ 0 nan nan 133.7092 0.0000 nan 100.00%
0+ 0 nan nan 114.7297 0.0000 nan 100.00%
0 0 24.4161 16 114.7297 24.4161 157 78.72%
0+ 0 nan nan 105.4216 24.4161 nan 76.84%
0 0 29.5048 20 105.4216 Cuts:12 190 72.01%
0 0 33.2919 24 105.4216 Cuts:18 219 68.42%
0+ 0 nan nan 94.2982 33.2919 nan 64.70%
0 0 34.1850 23 94.2982 Cuts:11 231 63.75%
0 0 35.9364 26 94.2982 Cuts:16 259 61.89%
0 0 37.3184 24 94.2982 Cuts:11 286 60.43%
0 0 37.3844 24 94.2982 Cuts:2 295 60.36%
0+ 0 nan nan 74.3108 37.3844 nan 49.69%
0+ 0 nan nan 73.1944 37.3844 nan 48.92%
0 2 37.3844 24 73.1944 37.4176 295 48.88%
CPXPARAM_MIP_Cuts_Gomory-Disjunctive-MIRCut:Gomory 0
CPXPARAM_MIP_Cuts_Gomory-Disjunctive-MIRCut:Disjunctive 4
CPXPARAM_MIP_Cuts_Gomory-Disjunctive-MIRCut:MIRCut 12
31
Node Left Objective IInf Best_Integer Best_Bound ItCnt Gap
0+ 0 nan nan 133.7092 0.0000 nan 100.00%
0+ 0 nan nan 114.7297 0.0000 nan 100.00%
0 0 0.0000 23 114.7297 0.0000 118 100.00%
0+ 0 nan nan 56.4594 0.0000 nan 100.00%
0+ 0 nan nan 55.7068 0.0000 nan 100.00%
0+ 0 nan nan 38.3245 0.0000 nan 100.00%
0+ 0 nan nan 35.9797 0.0000 nan 100.00%
0 2 0.0000 15 35.9797 0.0000 118 100.00%
CPXPARAM_MIP_Cuts_Gomory-Disjunctive-MIRCut:Gomory 0
CPXPARAM_MIP_Cuts_Gomory-Disjunctive-MIRCut:Disjunctive 0
CPXPARAM_MIP_Cuts_Gomory-Disjunctive-MIRCut:MIRCut 0
32
Node Left Objective IInf Best_Integer Best_Bound ItCnt Gap
0+ 0 nan nan 110.7059 0.0000 nan 100.00%
0+ 0 nan nan 93.8685 0.0000 nan 100.00%
0+ 0 nan nan 88.1652 0.0000 nan 100.00%
0 0 12.8255 21 88.1652 12.8255 166 85.45%
0 0 15.3001 26 88.1652 Cuts:15 195 82.65%
0+ 0 nan nan 70.2929 15.3001 nan 78.23%
0 0 17.2710 29 70.2929 Cuts:22 223 75.43%
0 0 19.2053 28 70.2929 Cuts:12 252 72.68%
0 0 20.8851 28 70.2929 Disjcuts:9 274 70.29%
0 0 21.4267 31 70.2929 Cuts:7 293 69.52%
0 0 21.6157 31 70.2929 Cuts:3 304 69.25%
0+ 0 nan nan 54.6069 21.6157 nan 60.42%
0 2 21.6157 31 54.6069 21.7564 304 60.16%
CPXPARAM_MIP_Cuts_Gomory-Disjunctive-MIRCut:Gomory 0
CPXPARAM_MIP_Cuts_Gomory-Disjunctive-MIRCut:Disjunctive 6
CPXPARAM_MIP_Cuts_Gomory-Disjunctive-MIRCut:MIRCut 11
33
Node Left Objective IInf Best_Integer Best_Bound ItCnt Gap
0+ 0 nan nan 110.7059 0.0000 nan 100.00%
0+ 0 nan nan 93.8685 0.0000 nan 100.00%
0 0 0.0000 27 93.8685 0.0000 120 100.00%
0+ 0 nan nan 49.9720 0.0000 nan 100.00%
0 0 0.0000 21 49.9720 Cuts:8 141 100.00%
0 0 0.0000 22 49.9720 Cuts:16 161 100.00%
0+ 0 nan nan 47.9484 0.0000 nan 100.00%
0 0 0.0000 21 47.9484 Disjcuts:3 169 100.00%
0+ 0 nan nan 43.5797 0.0000 nan 100.00%
0+ 0 nan nan 33.0724 0.0000 nan 100.00%
0 2 0.0000 19 33.0724 0.0000 169 100.00%
CPXPARAM_MIP_Cuts_Gomory-Disjunctive-MIRCut:Gomory 0
CPXPARAM_MIP_Cuts_Gomory-Disjunctive-MIRCut:Disjunctive 0
CPXPARAM_MIP_Cuts_Gomory-Disjunctive-MIRCut:MIRCut 1
34
Node Left Objective IInf Best_Integer Best_Bound ItCnt Gap
0+ 0 nan nan 110.7059 0.0000 nan 100.00%
0+ 0 nan nan 74.9711 0.0000 nan 100.00%
0 0 0.0000 23 74.9711 0.0000 152 100.00%
0+ 0 nan nan 70.1819 0.0000 nan 100.00%
0 0 3.0212 24 70.1819 Cuts:28 222 95.70%
0+ 0 nan nan 60.3772 3.0212 nan 95.00%
0 0 6.4960 25 60.3772 Cuts:24 265 89.24%
0 0 7.4041 27 60.3772 Cuts:15 300 87.74%
0 0 9.0575 27 60.3772 Cuts:26 350 85.00%
0 0 10.3275 24 60.3772 Cuts:31 403 82.90%
0 0 10.3950 26 60.3772 Disjcuts:1 414 82.78%
0 0 10.3984 28 60.3772 Disjcuts:1 416 82.78%
0+ 0 nan nan 47.5931 10.3984 nan 78.15%
0+ 0 nan nan 42.1412 10.3984 nan 75.32%
0 2 10.3984 28 42.1412 10.4214 416 75.27%
CPXPARAM_MIP_Cuts_Gomory-Disjunctive-MIRCut:Gomory 0
CPXPARAM_MIP_Cuts_Gomory-Disjunctive-MIRCut:Disjunctive 1
CPXPARAM_MIP_Cuts_Gomory-Disjunctive-MIRCut:MIRCut 11
35
Node Left Objective IInf Best_Integer Best_Bound ItCnt Gap
0+ 0 nan nan 110.7059 0.0000 nan 100.00%
0+ 0 nan nan 74.9711 0.0000 nan 100.00%
0 0 0.0000 23 74.9711 0.0000 115 100.00%
0+ 0 nan nan 29.6008 0.0000 nan 100.00%
0 0 0.0000 17 29.6008 Cuts:3 142 100.00%
0 0 0.0000 17 29.6008 Cuts:12 172 100.00%
0+ 0 nan nan 25.6111 0.0000 nan 100.00%
0 2 0.0000 16 25.6111 0.0000 172 100.00%
CPXPARAM_MIP_Cuts_Gomory-Disjunctive-MIRCut:Gomory 0
CPXPARAM_MIP_Cuts_Gomory-Disjunctive-MIRCut:Disjunctive 0
CPXPARAM_MIP_Cuts_Gomory-Disjunctive-MIRCut:MIRCut 0
36
Node Left Objective IInf Best_Integer Best_Bound ItCnt Gap
0+ 0 nan nan 123.7135 0.0000 nan 100.00%
0+ 0 nan nan 108.6148 0.0000 nan 100.00%
0+ 0 nan nan 99.0366 0.0000 nan 100.00%
0 0 0.0000 27 99.0366 0.0000 139 100.00%
0+ 0 nan nan 98.7082 0.0000 nan 100.00%
0 0 2.8951 31 98.7082 Cuts:30 212 97.07%
0 0 7.3564 29 98.7082 Cuts:20 241 92.55%
0 0 8.4786 29 98.7082 Cuts:20 261 91.41%
0 0 9.6986 28 98.7082 Cuts:8 292 90.17%
0+ 0 nan nan 91.0415 9.6986 nan 89.35%
0 0 10.8247 28 91.0415 Cuts:19 320 88.11%
0 0 11.0030 28 91.0415 Disjcuts:1 329 87.91%
0 0 11.0469 30 91.0415 Disjcuts:1 335 87.87%
0+ 0 nan nan 76.0265 11.0469 nan 85.47%
0+ 0 nan nan 64.2488 11.0469 nan 82.81%
0+ 0 nan nan 62.8679 11.0469 nan 82.43%
0 2 11.0469 30 62.8679 11.2558 335 82.10%
CPXPARAM_MIP_Cuts_Gomory-Disjunctive-MIRCut:Gomory 0
CPXPARAM_MIP_Cuts_Gomory-Disjunctive-MIRCut:Disjunctive 1
CPXPARAM_MIP_Cuts_Gomory-Disjunctive-MIRCut:MIRCut 9
37
Node Left Objective IInf Best_Integer Best_Bound ItCnt Gap
0+ 0 nan nan 123.7135 0.0000 nan 100.00%
0+ 0 nan nan 108.6148 0.0000 nan 100.00%
0 0 0.0000 27 108.6148 0.0000 124 100.00%
0+ 0 nan nan 71.2777 0.0000 nan 100.00%
0 0 0.0000 19 71.2777 Disjcuts:1 132 100.00%
0+ 0 nan nan 58.7503 0.0000 nan 100.00%
0 0 0.0000 19 58.7503 Cuts:13 169 100.00%
0 0 0.0000 20 58.7503 Cuts:14 220 100.00%
0+ 0 nan nan 51.7259 0.0000 nan 100.00%
0+ 0 nan nan 40.7369 0.0000 nan 100.00%
0+ 0 nan nan 31.1571 0.0000 nan 100.00%
0 2 0.0000 19 31.1571 0.0000 220 100.00%
CPXPARAM_MIP_Cuts_Gomory-Disjunctive-MIRCut:Gomory 0
CPXPARAM_MIP_Cuts_Gomory-Disjunctive-MIRCut:Disjunctive 0
CPXPARAM_MIP_Cuts_Gomory-Disjunctive-MIRCut:MIRCut 1
38
Node Left Objective IInf Best_Integer Best_Bound ItCnt Gap
0+ 0 nan nan 123.7135 0.0000 nan 100.00%
0+ 0 nan nan 89.1896 0.0000 nan 100.00%
0 0 4.5425 20 89.1896 4.5425 153 94.91%
0+ 0 nan nan 83.5087 4.5425 nan 94.56%
0 0 11.5399 23 83.5087 Cuts:21 180 86.18%
0 0 14.0956 26 83.5087 Cuts:26 204 83.12%
0 0 16.7029 27 83.5087 Cuts:17 232 80.00%
0 0 19.2462 23 83.5087 Cuts:25 273 76.95%
0 0 20.7272 25 83.5087 Cuts:17 311 75.18%
0 0 21.0310 25 83.5087 Disjcuts:2 323 74.82%
0+ 0 nan nan 56.0854 21.0310 nan 62.50%
0+ 0 nan nan 50.1610 21.0310 nan 58.07%
0 2 21.0310 25 50.1610 21.3123 323 57.51%
CPXPARAM_MIP_Cuts_Gomory-Disjunctive-MIRCut:Gomory 0
CPXPARAM_MIP_Cuts_Gomory-Disjunctive-MIRCut:Disjunctive 0
CPXPARAM_MIP_Cuts_Gomory-Disjunctive-MIRCut:MIRCut 18
39
Node Left Objective IInf Best_Integer Best_Bound ItCnt Gap
0+ 0 nan nan 123.7135 0.0000 nan 100.00%
0+ 0 nan nan 89.1896 0.0000 nan 100.00%
0 0 0.0000 23 89.1896 0.0000 129 100.00%
0+ 0 nan nan 59.4311 0.0000 nan 100.00%
0+ 0 nan nan 35.2998 0.0000 nan 100.00%
0+ 0 nan nan 25.4616 0.0000 nan 100.00%
0 2 0.0000 15 25.4616 0.0000 129 100.00%
CPXPARAM_MIP_Cuts_Gomory-Disjunctive-MIRCut:Gomory 0
CPXPARAM_MIP_Cuts_Gomory-Disjunctive-MIRCut:Disjunctive 0
CPXPARAM_MIP_Cuts_Gomory-Disjunctive-MIRCut:MIRCut 0
